(set-info :smt-lib-version 2.6)
(set-logic QF_UFLRA)
(set-info :source |
MathSat group

|)
(set-info :category "random")
(set-info :status sat)
(declare-fun x0 () Real)
(declare-fun x1 () Real)
(declare-fun x2 () Real)
(declare-fun x3 () Real)
(declare-fun x4 () Real)
(declare-fun x5 () Real)
(declare-fun x6 () Real)
(declare-fun x7 () Real)
(declare-fun x8 () Real)
(declare-fun x9 () Real)
(declare-fun x10 () Real)
(declare-fun x11 () Real)
(declare-fun x12 () Real)
(declare-fun x13 () Real)
(declare-fun x14 () Real)
(declare-fun x15 () Real)
(declare-fun x16 () Real)
(declare-fun x17 () Real)
(declare-fun x18 () Real)
(declare-fun x19 () Real)
(declare-fun x20 () Real)
(declare-fun x21 () Real)
(declare-fun x22 () Real)
(declare-fun x23 () Real)
(declare-fun x24 () Real)
(declare-fun x25 () Real)
(declare-fun x26 () Real)
(declare-fun x27 () Real)
(declare-fun x28 () Real)
(declare-fun x29 () Real)
(declare-fun x30 () Real)
(declare-fun x31 () Real)
(declare-fun x32 () Real)
(declare-fun x33 () Real)
(declare-fun x34 () Real)
(declare-fun x35 () Real)
(declare-fun x36 () Real)
(declare-fun x37 () Real)
(declare-fun x38 () Real)
(declare-fun x39 () Real)
(declare-fun x40 () Real)
(declare-fun x41 () Real)
(declare-fun x42 () Real)
(declare-fun x43 () Real)
(declare-fun x44 () Real)
(declare-fun x45 () Real)
(declare-fun x46 () Real)
(declare-fun x47 () Real)
(declare-fun x48 () Real)
(declare-fun x49 () Real)
(declare-fun f0_1 (Real) Real)
(declare-fun f0_2 (Real Real) Real)
(declare-fun f0_3 (Real Real Real) Real)
(declare-fun f0_4 (Real Real Real Real) Real)
(declare-fun P0 () Bool)
(declare-fun P1 () Bool)
(declare-fun P2 () Bool)
(declare-fun P3 () Bool)
(declare-fun P4 () Bool)
(declare-fun P5 () Bool)
(declare-fun P6 () Bool)
(declare-fun P7 () Bool)
(declare-fun P8 () Bool)
(declare-fun P9 () Bool)
(declare-fun P10 () Bool)
(declare-fun P11 () Bool)
(declare-fun P12 () Bool)
(declare-fun P13 () Bool)
(declare-fun P14 () Bool)
(declare-fun P15 () Bool)
(declare-fun P16 () Bool)
(declare-fun P17 () Bool)
(declare-fun P18 () Bool)
(declare-fun P19 () Bool)
(declare-fun P20 () Bool)
(declare-fun P21 () Bool)
(declare-fun P22 () Bool)
(declare-fun P23 () Bool)
(declare-fun P24 () Bool)
(declare-fun P25 () Bool)
(declare-fun P26 () Bool)
(declare-fun P27 () Bool)
(declare-fun P28 () Bool)
(declare-fun P29 () Bool)
(declare-fun P30 () Bool)
(declare-fun P31 () Bool)
(declare-fun P32 () Bool)
(declare-fun P33 () Bool)
(declare-fun P34 () Bool)
(declare-fun P35 () Bool)
(declare-fun P36 () Bool)
(declare-fun P37 () Bool)
(declare-fun P38 () Bool)
(declare-fun P39 () Bool)
(declare-fun P40 () Bool)
(declare-fun P41 () Bool)
(declare-fun P42 () Bool)
(declare-fun P43 () Bool)
(declare-fun P44 () Bool)
(declare-fun P45 () Bool)
(declare-fun P46 () Bool)
(declare-fun P47 () Bool)
(declare-fun P48 () Bool)
(declare-fun P49 () Bool)
(assert (let ((?v_61 (* 14 x18))) (let ((?v_204 (distinct (+ (- (* 24 x33) (* 2 x33)) ?v_61) 15)) (?v_39 (= (+ (- (* 7 x48) (* 20 x36)) (* 2 x24)) 27)) (?v_78 (<= (- (+ (* 7 x25) (* 15 x3)) (* 16 x41)) 13)) (?v_8 (* 10 x21))) (let ((?v_16 (distinct (+ (- (* 27 x49) ?v_8) ?v_61) 16)) (?v_254 (< (- (+ (* 12 x41) (* 9 x38)) (* 20 x27)) 24)) (?v_76 (<= (- (- (* 4 x13) (* 26 x1)) (* 18 x36)) 21)) (?v_211 (< (- (- (* 26 x38) (* 20 x9)) ?v_8) 27)) (?v_125 (< (+ (- (* 20 x16) (* 27 x47)) (* 20 x5)) 0)) (?v_122 (<= (- (+ (* 11 x40) (* 9 x41)) (* 21 x49)) 5)) (?v_92 (< (- (+ (* 4 x33) (* 20 x23)) (* 25 x35)) 26)) (?v_153 (= x41 (f0_2 x9 x8))) (?v_95 (= x46 (f0_2 x19 x15))) (?v_35 (distinct (f0_2 x18 x21) (f0_2 x49 x1))) (?v_21 (distinct x17 x37)) (?v_196 (distinct x31 x11)) (?v_52 (= (f0_2 x10 x26) x0)) (?v_65 (distinct x3 (f0_2 x15 x16))) (?v_250 (= (f0_1 x1) (f0_2 x48 x29))) (?v_155 (distinct (f0_2 x20 x18) x4)) (?v_133 (= (f0_2 x25 x12) (f0_2 x37 x35))) (?v_99 (= (f0_2 x24 x17) (f0_1 x23))) (?v_18 (= (f0_2 x45 x18) (f0_1 x42))) (?v_3 (f0_1 x6))) (let ((?v_6 (distinct x36 ?v_3)) (?v_164 (= (f0_2 x9 x44) (f0_1 x3))) (?v_28 (f0_1 x36))) (let ((?v_107 (= ?v_28 x29)) (?v_183 (= x30 x19)) (?v_5 (= (f0_2 x42 x35) (f0_1 x13))) (?v_27 (f0_1 x18))) (let ((?v_43 (= ?v_27 (f0_1 x2))) (?v_10 (= x41 x10)) (?v_56 (= (f0_2 x33 x22) (f0_2 x36 x34))) (?v_69 (= x9 (f0_2 x6 x42))) (?v_144 (= (f0_2 x3 x19) x27)) (?v_90 (= (f0_2 x26 x9) (f0_2 x12 x9))) (?v_44 (= x21 x46)) (?v_37 (= (f0_2 x32 x8) x30)) (?v_198 (= (f0_2 x17 x41) x46)) (?v_41 (distinct (f0_2 x17 x32) (f0_2 x33 x30))) (?v_219 (= (f0_1 x43) x46)) (?v_119 (f0_1 x46))) (let ((?v_96 (distinct ?v_119 (f0_2 x37 x20))) (?v_79 (= (f0_2 x20 x41) (f0_2 x16 x6))) (?v_194 (distinct (f0_2 x0 x10) (f0_2 x39 x45))) (?v_109 (= (f0_1 x49) (f0_2 x18 x28))) (?v_216 (distinct (f0_1 x48) (f0_1 x41))) (?v_82 (f0_1 x33))) (let ((?v_23 (distinct ?v_28 ?v_82)) (?v_208 (= (f0_1 x15) (f0_2 x34 x43))) (?v_108 (distinct (f0_2 x44 x2) (f0_2 x33 x0))) (?v_59 (= x5 ?v_27)) (?v_115 (distinct (f0_2 x36 x31) (f0_2 x3 x20))) (?v_97 (= (f0_2 x6 x10) (f0_2 x9 x33))) (?v_94 (= ?v_82 (f0_2 x38 x11))) (?v_212 (distinct (f0_2 x18 x0) (f0_2 x13 x46))) (?v_149 (= x9 (f0_2 x5 x25))) (?v_22 (f0_1 x37))) (let ((?v_20 (distinct ?v_22 (f0_2 x38 x4))) (?v_60 (= ?v_22 x40)) (?v_207 (= ?v_119 (f0_2 x40 x40))) (?v_26 (distinct (f0_2 x26 x5) ?v_22)) (?v_134 (distinct x6 ?v_3)) (?v_17 (distinct (f0_2 x6 x45) (f0_2 x21 x48))) (?v_63 (distinct x17 (f0_2 x5 x48))) (?v_130 (not ?v_37)) (?v_139 (not ?v_108)) (?v_1 (not ?v_16)) (?v_138 (not ?v_115)) (?v_32 (not P34)) (?v_0 (not ?v_212)) (?v_103 (not ?v_65)) (?v_7 (not P22)) (?v_116 (not P12)) (?v_190 (not P3)) (?v_14 (not ?v_6)) (?v_210 (not ?v_219)) (?v_47 (not P10)) (?v_40 (not P8)) (?v_42 (not P15)) (?v_91 (not P48))) (let ((?v_168 (not ?v_63)) (?v_50 (not P18)) (?v_248 (not ?v_76)) (?v_38 (not ?v_35)) (?v_9 (not P25)) (?v_128 (not ?v_69)) (?v_118 (not P27)) (?v_29 (not ?v_211))) (let ((?v_232 (or P19 ?v_29)) (?v_124 (not ?v_79)) (?v_253 (not ?v_10)) (?v_184 (not P21)) (?v_30 (not P49)) (?v_112 (not P16)) (?v_75 (not ?v_90)) (?v_132 (not ?v_18)) (?v_54 (not ?v_21)) (?v_87 (not ?v_26)) (?v_80 (not P13)) (?v_175 (not ?v_59)) (?v_83 (not P7)) (?v_136 (not ?v_99)) (?v_165 (not P47)) (?v_77 (not ?v_250)) (?v_186 (not P38)) (?v_154 (not P30)) (?v_141 (not P4)) (?v_84 (not ?v_39)) (?v_49 (not ?v_254)) (?v_98 (not ?v_41)) (?v_151 (not ?v_20)) (?v_135 (not ?v_43)) (?v_137 (not P14)) (?v_88 (not P24)) (?v_74 (not ?v_122)) (?v_110 (not ?v_56)) (?v_93 (not (= (f0_2 x43 x36) (f0_1 x25)))) (?v_89 (not ?v_44)) (?v_64 (not P19)) (?v_152 (not P44)) (?v_81 (not P42)) (?v_233 (not ?v_60)) (?v_72 (not ?v_204)) (?v_102 (not P37)) (?v_120 (not P43)) (?v_85 (not P40)) (?v_191 (not ?v_198)) (?v_172 (not P23)) (?v_221 (not P35)) (?v_238 (not P20)) (?v_113 (not ?v_208)) (?v_205 (not ?v_92)) (?v_217 (not ?v_78)) (?v_228 (not ?v_96)) (?v_187 (not ?v_97)) (?v_129 (not ?v_194)) (?v_226 (not ?v_52)) (?v_159 (not P41)) (?v_192 (not P5)) (?v_114 (not P33)) (?v_142 (not ?v_107)) (?v_203 (not ?v_94)) (?v_166 (not P32)) (?v_215 (not P0)) (?v_234 (not P26)) (?v_145 (not ?v_125)) (?v_174 (not ?v_23)) (?v_180 (not P6)) (?v_202 (not ?v_144)) (?v_243 (not P46)) (?v_229 (not P28)) (?v_249 (not P29)) (?v_222 (not P31)) (?v_178 (not ?v_149)) (?v_201 (not P36)) (?v_223 (not ?v_153)) (?v_157 (not P39)) (?v_177 (not ?v_155)) (?v_179 (not ?v_196)) (?v_195 (not ?v_164)) (?v_230 (not P45)) (?v_193 (not P9)) (?v_199 (not ?v_183)) (?v_200 (not ?v_133)) (?v_224 (not ?v_216)) (?v_209 (not ?v_134)) (?v_235 (not ?v_207)) (?v_213 (not ?v_95)) (?v_239 (not ?v_17)) (?v_244 (not P1)) (?v_247 (not P2)) (?v_236 (not P11)) (?v_111 (< (- x43 (* 21 x7)) 2)) (?v_13 (< (+ (* 19 x4) (* 20 x11) (* 19 x6)) 9)) (?v_12 (<= (+ (* 16 x49) (* 16 x12)) 27)) (?v_36 (< (- 0 (* 3 x34)) 18))) (let ((?v_67 (not ?v_36)) (?v_104 (<= (+ (* 24 x14) (* 16 x23)) 26)) (?v_48 (distinct (+ (* 20 x43) (* 3 x28)) 0))) (let ((?v_163 (not ?v_48)) (?v_101 (= (+ (- 0 (* 9 x14)) (* 20 x49)) 19))) (let ((?v_227 (not ?v_101)) (?v_140 (not ?v_104)) (?v_189 (not ?v_111)) (?v_181 (not ?v_13)) (?v_231 (not ?v_12)) (?v_206 (<= (- (+ (* (- 16) x23) x5) (* 10 x10)) 5))) (let ((?v_241 (or ?v_96 ?v_206)) (?v_62 (<= (+ (- (* 15 x34) 0) (* 14 x25)) (- 16))) (?v_2 (< (+ (- (* 18 x4) (* 20 x10)) (* 16 x36)) (- 19))) (?v_45 (<= (- (- (* (- 20) x46) (* 3 x27)) (* 2 x17)) 25))) (let ((?v_121 (not ?v_45)) (?v_33 (<= (+ (- (* 20 x35) (* 17 x9)) (* 20 x25)) (- 12)))) (let ((?v_100 (not ?v_33)) (?v_24 (distinct (- (- (* (- 17) x35) (* 14 x29)) (* 6 x22)) (- 17))) (?v_15 (not ?v_2)) (?v_4 (<= (+ (- (* (- 13) x11) (* 10 x48)) (* 3 x44)) (- 23))) (?v_34 (<= (- (+ (* (- 4) x19) (* 25 x29)) (* 12 x33)) (- 9))) (?v_162 (= (+ (* 5 x0) (* 20 x33) (* 14 x43)) (- 18))) (?v_11 (<= (- (- (* (- 26) x22) (* 27 x1)) (* 17 x40)) 13)) (?v_46 (= (+ (- (* (- 4) x3) (* 13 x3)) (* 13 x29)) 1))) (let ((?v_51 (not ?v_46)) (?v_19 (< (+ (- (* (- 14) x26) x39) x40) 8)) (?v_68 (< (- (- (* 18 x31) (* 25 x41)) (* 8 x45)) (- 16))) (?v_53 (not ?v_4)) (?v_218 (< (- (* 5 x38) (* 26 x23)) (- 22)))) (let ((?v_245 (not ?v_218)) (?v_105 (= (+ (* (- 22) x6) (* 10 x45) (* 19 x40)) 17))) (let ((?v_167 (not ?v_105)) (?v_123 (distinct (- (* 25 x45) (* 16 x24)) (- 15))) (?v_220 (not ?v_19)) (?v_146 (< (- (* (- 17) x34) (* 8 x31)) 19))) (let ((?v_70 (not ?v_146)) (?v_71 (<= (- (+ (* (- 17) x23) (* 25 x33)) (* 21 x28)) (- 29)))) (let ((?v_148 (not ?v_71)) (?v_25 (< (+ (* (- 11) x24) (* 4 x49) (* 22 x35)) (- 14)))) (let ((?v_131 (not ?v_25)) (?v_66 (distinct (- (- (* 22 x24) (* 17 x7)) (* 17 x11)) (- 6)))) (let ((?v_31 (not ?v_66)) (?v_86 (<= (- (- (* (- 24) x20) (* 22 x49)) (* 9 x18)) (- 21)))) (let ((?v_55 (not ?v_86)) (?v_150 (<= (- (- (* 23 x25) (* 20 x28)) (* 14 x22)) (- 19)))) (let ((?v_58 (not ?v_150)) (?v_57 (< (- (+ (* (- 10) x5) (* 6 x2)) (* 26 x7)) (- 5))) (?v_251 (<= (+ (* (- 11) x42) (* 9 x12) (* 15 x30)) (- 22)))) (let ((?v_170 (not ?v_251)) (?v_117 (<= (+ (* (- 3) x8) (* 26 x43) (* 3 x37)) (- 21))) (?v_106 (distinct (- (+ (* (- 20) x39) (* 13 x24)) (* 3 x13)) (- 23))) (?v_73 (< (+ (- (* (- 2) x7) (* 16 x3)) (* 10 x1)) (- 21)))) (let ((?v_171 (not ?v_73)) (?v_197 (not ?v_62)) (?v_161 (not ?v_68)) (?v_173 (not ?v_24)) (?v_225 (not ?v_57)) (?v_158 (< (- (+ (* (- 5) x10) (* 18 x11)) (* 16 x10)) 26))) (let ((?v_237 (not ?v_158)) (?v_156 (< (- (- (* (- 17) x30) (* 22 x25)) (* 24 x35)) 21))) (let ((?v_252 (not ?v_156)) (?v_160 (<= (+ (* (- 21) x2) (* 6 x9) (* 23 x4)) 0)) (?v_147 (<= (- (+ (* 2 x36) (* 5 x2)) (* 10 x17)) (- 23))) (?v_169 (not ?v_34)) (?v_143 (not ?v_106)) (?v_126 (< (- (+ (* (- 19) x46) (* 21 x43)) x17) (- 4)))) (let ((?v_176 (not ?v_126)) (?v_214 (not ?v_117)) (?v_127 (not ?v_123)) (?v_185 (< (+ (* (- 23) x20) (* 25 x5) (* 13 x17)) (- 23))) (?v_242 (not ?v_162)) (?v_182 (not ?v_147))) (let ((?v_188 (not ?v_185)) (?v_240 (not ?v_160)) (?v_246 (not ?v_11))) (and (and (and (and (and (and (and (and (and (and (and (and (and (and (and (and (and (and (and (and (and (and (and (and (and (and (and (and (and (and (and (and (and (and (and (and (and (and (and (and (and (and (and (and (and (and (and (and (and (and (and (and (and (and (and (and (and (and (and (and (and (and (and (and (and (and (and (and (and (and (and (and (and (and (and (and (and (and (and (and (and (and (and (and (and (and (and (and (and (and (and (and (and (and (and (and (and (and (and (and (and (and (and (and (and (and (and (and (and (and (and (and (and (and (and (and (and (and (and (and (and (and (and (and (and (and (and (and (and (and (and (and (and (and (and (and (and (and (and (and (and (and (and (and (and (and (and (and (and (and (and (and (and (and (and (and (and (and (and (and (and (and (and (and (and (and (and (and (and (and (and (and (and (and (and (and (and (and (and (and (and (and (and (and (and (and (and (and (and (and (and (and (and (and (and (and (and (and (and (and (and (and (and (and (and (and (and (and (and (and (and (and (and (and (and (and (and (and (and (and (and (and (and (and (and (and (and (and (and (and (and (and (and (and (and (and (and (and (and (and (and (and (and (and (and (and (and (and (and (and (and (and (and (and (and (and (and (and (and (and (and (and (and (and (and (and (and (and (and (and (and (and (and (and (and (and (and (and (and (and (and (and (and (and (and (and (and (and (and (and (and (and (and (and (and (and (and (and (and (and (and (and (and (and (and (and (and (and (and (and (and (and (and (and (and (and (and (and (and (and (and (and (and (and (and (and (and (and (and (and (and (and (and (and (and (and (and (and (and (and (and (and (and (and (and (and (and (and (and (and (and (and (and (and (and (and (and (and (and (and (and (and (and (and (and (and (and (and (and (and (and (and (and (and (and (and (and (and (and (and (and (and (and (and (and (and (and (and (and (and (and (and (and (and (and (and (and (and (and (and (and (and (and (and (and (and (and (and (and (and (and (and (and (and (and (and (and (and (and (and (and (and (and (and (and (and (and (and (and (and (and (and (and (and (and (and (and (and (and (and (and (and (and (and (and (and (and (and (and (and (and (and (and (and (and (and (and (and (and (and (and (and (and (and (and (and (and (and (and (and (and (and (and (and (and (and (and (and (and (and (and (and (and (and (and (and (and (and (and (and (and (and (and (and (and (and (and (and (and (and (and (and (and (and (and (and (and (and (and (and (and (and (and (and (and (and (and (and (and (and (and (and (and (and (and (and (and (and (and (and (and (and (and (and (and (and (and (and (and (and (and (and (and (and (and (and (and (and (and (and (and (and (and (and (and (and (and (and (and (and (and (and (and (and (and (and (and (and (and (and (and (and (and (and (and (and (and (and (and (and (and (and (and (and (and (and (and (and (and (and (and (and (and (and (and (and (and (and (and (or (or ?v_134 ?v_144) ?v_130) (or (or P20 P6) ?v_139)) (or (or P11 ?v_1) ?v_43)) (or (or ?v_138 ?v_32) ?v_97)) (or ?v_241 ?v_21)) (or (or P27 ?v_0) ?v_62)) (or (or ?v_5 P4) ?v_111)) (or (or ?v_13 ?v_2) ?v_121)) (or (or ?v_17 ?v_103) ?v_7)) (or (or ?v_0 ?v_100) ?v_116)) (or (or ?v_24 ?v_190) ?v_109)) (or (or ?v_1 ?v_15) ?v_4)) (or (or ?v_10 ?v_14) P39)) (or (or ?v_210 ?v_34) ?v_39)) (or (or ?v_47 P15) P48)) (or (or ?v_40 ?v_162) P6)) (or (or ?v_11 ?v_12) ?v_51)) (or (or P0 ?v_19) ?v_42)) (or (or P7 ?v_91) ?v_68)) (or (or ?v_168 ?v_50) ?v_52)) (or (or P0 P43) P46)) (or (or ?v_248 ?v_38) ?v_53)) (or (or P37 ?v_67) ?v_5)) (or (or ?v_6 P1) ?v_20)) (or (or ?v_104 ?v_153) ?v_9)) (or (or P34 ?v_128) ?v_2)) (or (or ?v_118 ?v_7) P42)) (or ?v_232 P44)) (or (or ?v_9 ?v_124) ?v_253)) (or (or ?v_184 ?v_11) P9)) (or (or ?v_30 P42) ?v_12)) (or (or ?v_13 ?v_14) ?v_18)) (or (or ?v_245 ?v_112) ?v_167)) (or (or ?v_15 ?v_75) ?v_16)) (or (or ?v_23 ?v_17) ?v_132)) (or (or ?v_123 P10) ?v_16)) (or (or ?v_220 ?v_20) ?v_70)) (or (or ?v_54 ?v_17) ?v_87)) (or (or ?v_21 ?v_23) ?v_80)) (or (or P18 ?v_24) ?v_148)) (or (or ?v_44 ?v_131) ?v_17)) (or (or ?v_25 ?v_26) ?v_15)) (or (or ?v_92 ?v_175) ?v_83)) (or (or ?v_31 ?v_107) ?v_11)) (or (or ?v_29 P34) ?v_30)) (or (or ?v_55 ?v_6) P2)) (or (or P38 ?v_60) ?v_136)) (or (or ?v_165 ?v_77) ?v_31)) (or (or ?v_186 ?v_20) ?v_32)) (or (or ?v_33 ?v_154) P38)) (or (or ?v_34 ?v_35) ?v_36)) (or (or ?v_141 ?v_41) ?v_4)) (or (or ?v_36 ?v_37) P6)) (or (or ?v_38 ?v_84) ?v_49)) (or (or P16 ?v_40) ?v_31)) (or (or ?v_58 ?v_98) ?v_42)) (or (or ?v_29 ?v_151) ?v_57)) (or (or ?v_135 P38) ?v_17)) (or (or ?v_137 ?v_38) ?v_163)) (or (or ?v_125 ?v_44) P7)) (or (or ?v_38 P7) ?v_12)) (or (or ?v_38 ?v_19) ?v_88)) (or (or ?v_45 ?v_74) ?v_46)) (or (or ?v_17 ?v_47) ?v_48)) (or (or P23 ?v_49) ?v_50)) (or (or ?v_155 ?v_110) ?v_93)) (or (or ?v_51 ?v_89) ?v_170)) (or (or P16 ?v_117) ?v_5)) (or (or ?v_52 ?v_23) ?v_106)) (or (or ?v_19 ?v_53) ?v_171)) (or (or ?v_54 ?v_64) ?v_55)) (or (or ?v_43 P33) ?v_56)) (or (or P44 ?v_57) P32)) (or (or ?v_40 ?v_152) P9)) (or (or ?v_37 P31) ?v_58)) (or (or P3 ?v_81) ?v_59)) (or (or ?v_233 ?v_72) ?v_149)) (or (or P44 ?v_197) ?v_63)) (or (or ?v_52 ?v_64) ?v_102)) (or (or ?v_53 ?v_52) ?v_120)) (or (or ?v_10 ?v_65) ?v_31)) (or (or ?v_66 ?v_67) ?v_161)) (or (or ?v_69 ?v_70) ?v_85)) (or (or P41 ?v_173) P6)) (or (or ?v_34 ?v_2) ?v_71)) (or (or ?v_191 ?v_72) ?v_38)) (or (or ?v_225 P31) P29)) (or (or P15 ?v_73) ?v_74)) (or (or P2 ?v_47) P28)) (or (or ?v_16 ?v_78) P19)) (or (or ?v_58 ?v_172) ?v_75)) (or (or ?v_76 ?v_25) ?v_101)) (or (or ?v_237 ?v_221) ?v_76)) (or (or ?v_77 ?v_78) ?v_62)) (or (or ?v_79 ?v_164) ?v_252)) (or (or ?v_80 ?v_81) ?v_36)) (or (or ?v_94 P15) ?v_83)) (or (or ?v_238 ?v_84) ?v_160)) (or (or P21 P43) ?v_113)) (or (or ?v_85 ?v_86) ?v_87)) (or (or ?v_95 ?v_53) ?v_88)) (or (or P35 ?v_89) ?v_90)) (or (or ?v_12 P27) ?v_91)) (or (or ?v_147 P2) ?v_205)) (or (or ?v_10 P22) ?v_47)) (or (or ?v_69 ?v_93) ?v_217)) (or (or ?v_78 ?v_21) ?v_94)) (or (or ?v_95 P4) ?v_68)) (or (or ?v_34 ?v_228) ?v_187)) (or (or ?v_98 P34) ?v_1)) (or (or ?v_42 P8) ?v_99)) (or (or P19 ?v_87) ?v_60)) (or (or ?v_100 ?v_169) ?v_227)) (or (or ?v_102 ?v_6) ?v_129)) (or (or ?v_9 ?v_51) ?v_60)) (or (or P42 ?v_71) ?v_101)) (or (or ?v_53 ?v_226) ?v_62)) (or (or P31 ?v_78) P16)) (or (or ?v_159 ?v_56) ?v_192)) (or (or ?v_6 ?v_103) ?v_69)) (or (or ?v_75 ?v_140) ?v_105)) (or (or ?v_29 ?v_114) ?v_66)) (or (or P16 ?v_85) ?v_34)) (or (or ?v_102 ?v_47) ?v_143)) (or (or ?v_11 ?v_142) ?v_101)) (or (or ?v_107 P27) ?v_108)) (or (or ?v_109 ?v_11) ?v_110)) (or (or ?v_189 ?v_112) ?v_41)) (or (or ?v_113 ?v_47) P18)) (or (or ?v_176 P3) ?v_114)) (or (or P1 ?v_64) ?v_115)) (or (or P29 ?v_113) ?v_116)) (or (or ?v_100 ?v_133) ?v_109)) (or (or ?v_116 ?v_35) ?v_203)) (or (or ?v_214 ?v_166) ?v_215)) (or (or ?v_234 ?v_94) P25)) (or (or ?v_40 ?v_55) ?v_92)) (or (or ?v_118 ?v_207) ?v_120)) (or (or P5 ?v_121) ?v_11)) (or (or ?v_122 ?v_85) ?v_78)) (or (or ?v_75 ?v_127) P6)) (or (or P15 ?v_111) ?v_124)) (or (or ?v_145 ?v_66) ?v_126)) (or (or P39 ?v_127) ?v_104)) (or (or ?v_122 ?v_128) ?v_129)) (or (or ?v_130 ?v_131) ?v_174)) (or (or ?v_132 P23) ?v_133)) (or (or ?v_185 ?v_134) P7)) (or (or ?v_118 P45) ?v_33)) (or (or ?v_126 ?v_15) ?v_125)) (or (or ?v_120 ?v_62) ?v_72)) (or (or ?v_135 P3) ?v_59)) (or (or ?v_120 P44) ?v_136)) (or (or ?v_120 ?v_107) ?v_137)) (or (or ?v_16 ?v_17) ?v_133)) (or (or ?v_64 ?v_138) ?v_121)) (or (or ?v_52 ?v_37) P11)) (or (or ?v_78 ?v_139) ?v_62)) (or (or ?v_13 P25) P9)) (or (or ?v_140 ?v_141) ?v_183)) (or (or ?v_20 ?v_142) ?v_180)) (or (or ?v_48 ?v_143) P35)) (or (or ?v_202 ?v_243) ?v_145)) (or (or ?v_229 ?v_16) ?v_59)) (or (or ?v_102 ?v_146) ?v_147)) (or (or ?v_249 ?v_181) P34)) (or (or ?v_6 ?v_47) P27)) (or (or ?v_148 ?v_222) ?v_133)) (or (or P48 ?v_115) ?v_113)) (or (or ?v_99 ?v_178) ?v_201)) (or (or ?v_20 ?v_69) ?v_11)) (or (or ?v_88 ?v_150) ?v_46)) (or (or ?v_7 ?v_139) P39)) (or (or ?v_151 ?v_137) ?v_50)) (or (or P5 ?v_152) ?v_151)) (or (or ?v_133 ?v_69) ?v_223)) (or (or P46 ?v_154) ?v_107)) (or (or ?v_157 ?v_29) ?v_109)) (or (or ?v_177 ?v_73) ?v_29)) (or (or ?v_56 ?v_151) ?v_135)) (or (or P36 ?v_156) ?v_42)) (or (or ?v_157 ?v_158) ?v_159)) (or (or P11 ?v_179) ?v_160)) (or (or ?v_34 ?v_85) ?v_161)) (or (or ?v_242 ?v_163) P9)) (or (or ?v_195 ?v_112) ?v_7)) (or (or ?v_80 ?v_50) ?v_165)) (or (or ?v_166 P36) ?v_149)) (or (or ?v_167 ?v_25) P32)) (or (or ?v_52 ?v_150) ?v_93)) (or (or ?v_112 ?v_112) ?v_74)) (or (or ?v_4 ?v_88) ?v_168)) (or (or ?v_7 ?v_169) ?v_96)) (or (or ?v_41 P40) ?v_4)) (or (or P19 ?v_170) ?v_131)) (or (or ?v_85 ?v_230) P33)) (or (or ?v_143 ?v_171) ?v_45)) (or (or ?v_172 ?v_141) ?v_17)) (or (or ?v_173 ?v_174) ?v_0)) (or (or ?v_13 ?v_83) ?v_112)) (or (or ?v_175 ?v_176) ?v_193)) (or (or ?v_177 ?v_137) ?v_116)) (or (or ?v_148 P18) ?v_178)) (or (or ?v_182 ?v_66) ?v_40)) (or (or ?v_129 ?v_76) ?v_179)) (or (or ?v_132 ?v_165) ?v_92)) (or (or ?v_180 ?v_181) ?v_150)) (or (or ?v_17 ?v_182) ?v_101)) (or (or P16 ?v_50) ?v_68)) (or (or P25 ?v_68) P26)) (or (or ?v_120 ?v_143) ?v_199)) (or (or ?v_91 ?v_116) ?v_115)) (or (or P23 ?v_83) ?v_184)) (or (or ?v_70 ?v_94) ?v_142)) (or (or P9 ?v_67) ?v_162)) (or (or P10 P27) ?v_188)) (or (or ?v_55 ?v_186) ?v_148)) (or (or ?v_104 ?v_42) ?v_58)) (or (or ?v_70 ?v_89) P38)) (or (or ?v_184 ?v_184) P43)) (or (or ?v_7 ?v_9) ?v_187)) (or (or ?v_188 ?v_34) ?v_89)) (or (or ?v_162 ?v_59) ?v_161)) (or (or ?v_17 ?v_98) ?v_171)) (or (or P43 ?v_189) ?v_117)) (or (or ?v_190 ?v_40) ?v_96)) (or (or ?v_200 P9) ?v_91)) (or (or ?v_191 ?v_192) ?v_72)) (or (or ?v_16 P47) ?v_193)) (or (or ?v_179 ?v_98) ?v_42)) (or (or ?v_184 ?v_81) ?v_194)) (or (or ?v_185 ?v_195) ?v_4)) (or (or ?v_130 ?v_87) ?v_70)) (or (or ?v_103 ?v_2) ?v_40)) (or (or ?v_53 ?v_62) ?v_196)) (or (or ?v_14 ?v_25) P48)) (or (or ?v_91 ?v_197) ?v_33)) (or (or ?v_75 ?v_178) ?v_26)) (or (or ?v_224 ?v_195) ?v_167)) (or (or ?v_198 ?v_109) P6)) (or (or ?v_152 ?v_137) ?v_209)) (or (or ?v_31 ?v_199) ?v_24)) (or (or ?v_141 ?v_37) P24)) (or (or ?v_114 ?v_15) ?v_185)) (or (or ?v_184 ?v_200) ?v_25)) (or (or ?v_201 ?v_163) ?v_191)) (or (or P26 ?v_57) ?v_240)) (or (or ?v_141 ?v_165) ?v_202)) (or (or ?v_147 P43) ?v_148)) (or (or ?v_153 ?v_182) ?v_203)) (or (or ?v_204 ?v_77) ?v_63)) (or (or ?v_192 ?v_11) ?v_205)) (or (or ?v_206 ?v_190) ?v_1)) (or (or ?v_95 ?v_103) ?v_18)) (or (or P40 ?v_36) P39)) (or (or ?v_235 ?v_75) ?v_165)) (or (or ?v_180 ?v_180) ?v_128)) (or (or ?v_208 P36) ?v_155)) (or (or ?v_33 ?v_142) P2)) (or (or ?v_125 ?v_209) ?v_40)) (or (or ?v_125 ?v_159) P29)) (or (or ?v_140 ?v_58) ?v_9)) (or (or ?v_184 ?v_138) ?v_160)) (or (or ?v_213 ?v_195) ?v_174)) (or (or ?v_91 P33) ?v_200)) (or (or ?v_205 ?v_94) ?v_98)) (or (or ?v_191 ?v_41) P37)) (or (or ?v_87 ?v_143) ?v_193)) (or (or ?v_196 ?v_19) ?v_184)) (or (or P38 ?v_100) ?v_38)) (or (or ?v_19 ?v_90) ?v_210)) (or (or ?v_201 ?v_60) ?v_211)) (or (or ?v_38 P10) ?v_204)) (or (or ?v_114 ?v_212) ?v_20)) (or (or ?v_33 P9) ?v_64)) (or (or ?v_73 ?v_158) ?v_87)) (or (or ?v_164 ?v_45) ?v_123)) (or (or ?v_18 ?v_6) ?v_73)) (or (or ?v_159 ?v_83) ?v_143)) (or (or ?v_34 ?v_72) ?v_213)) (or (or P46 P34) ?v_213)) (or (or ?v_239 ?v_102) ?v_121)) (or (or ?v_169 ?v_214) ?v_212)) (or (or ?v_49 P43) ?v_178)) (or (or ?v_141 ?v_206) ?v_144)) (or (or ?v_112 ?v_90) ?v_207)) (or (or P1 ?v_159) ?v_215)) (or (or ?v_33 ?v_6) P45)) (or (or ?v_147 ?v_161) ?v_93)) (or (or ?v_94 ?v_44) P36)) (or (or ?v_207 ?v_49) P45)) (or (or P41 ?v_33) ?v_44)) (or (or P33 ?v_160) ?v_96)) (or (or ?v_216 ?v_116) ?v_68)) (or (or ?v_102 ?v_217) ?v_4)) (or (or ?v_5 ?v_24) ?v_2)) (or (or ?v_18 ?v_48) ?v_117)) (or (or P41 ?v_199) ?v_218)) (or (or ?v_4 ?v_155) ?v_219)) (or (or ?v_4 ?v_5) ?v_102)) (or (or P33 P22) ?v_214)) (or (or ?v_184 ?v_100) ?v_129)) (or (or ?v_64 ?v_70) ?v_182)) (or (or ?v_176 ?v_58) ?v_186)) (or (or ?v_220 ?v_120) ?v_21)) (or (or P30 ?v_76) ?v_71)) (or (or P3 P48) ?v_51)) (or (or ?v_200 ?v_156) ?v_221)) (or (or P37 P42) ?v_79)) (or (or ?v_175 ?v_122) ?v_23)) (or (or P6 ?v_29) ?v_85)) (or (or ?v_162 ?v_52) ?v_222)) (or (or ?v_152 P7) ?v_26)) (or (or ?v_40 ?v_214) P21)) (or (or ?v_155 ?v_23) ?v_141)) (or (or ?v_223 ?v_162) ?v_5)) (or (or ?v_6 ?v_202) ?v_192)) (or (or P27 ?v_244) ?v_14)) (or (or ?v_189 ?v_109) ?v_105)) (or (or ?v_26 ?v_180) ?v_56)) (or (or ?v_64 P8) ?v_69)) (or (or P49 ?v_99) P5)) (or (or ?v_59 ?v_47) ?v_188)) (or (or ?v_175 ?v_213) P35)) (or (or ?v_220 ?v_169) ?v_105)) (or (or P23 ?v_207) P44)) (or (or ?v_173 P38) ?v_70)) (or (or P47 ?v_71) ?v_175)) (or (or ?v_120 ?v_208) ?v_31)) (or (or ?v_39 ?v_7) ?v_224)) (or (or P22 ?v_94) ?v_179)) (or (or ?v_170 ?v_191) ?v_38)) (or (or ?v_111 ?v_100) P7)) (or (or ?v_225 P4) P48)) (or (or ?v_46 ?v_212) ?v_202)) (or (or P24 ?v_48) ?v_80)) (or (or ?v_54 ?v_164) ?v_126)) (or (or ?v_179 ?v_214) ?v_9)) (or (or ?v_226 P47) ?v_227)) (or (or ?v_228 ?v_21) ?v_159)) (or (or ?v_246 ?v_157) ?v_18)) (or (or ?v_111 ?v_44) ?v_160)) (or (or P33 ?v_229) ?v_65)) (or (or ?v_48 ?v_47) ?v_177)) (or (or P39 ?v_1) ?v_18)) (or (or ?v_73 ?v_150) ?v_195)) (or (or ?v_91 ?v_162) ?v_247)) (or (or ?v_208 ?v_11) P42)) (or (or ?v_49 ?v_133) ?v_4)) (or (or ?v_180 ?v_226) ?v_195)) (or (or ?v_175 P28) ?v_136)) (or (or (not ?v_206) P13) ?v_142)) (or (or P39 ?v_164) ?v_13)) (or (or ?v_121 ?v_15) P34)) (or (or ?v_145 ?v_146) ?v_174)) (or (or ?v_70 ?v_169) ?v_173)) (or (or ?v_225 ?v_218) ?v_231)) (or (or ?v_138 ?v_89) ?v_13)) (or (or ?v_112 P32) ?v_1)) (or (or P15 ?v_217) ?v_92)) (or (or P40 P44) ?v_102)) (or (or ?v_230 ?v_29) ?v_186)) (or (or P22 ?v_195) ?v_100)) (or (or ?v_207 ?v_113) ?v_11)) (or (or ?v_210 P10) ?v_71)) (or (or ?v_231 ?v_10) ?v_58)) (or (or ?v_204 ?v_49) ?v_187)) (or (or ?v_26 ?v_77) ?v_175)) (or (or ?v_83 ?v_206) ?v_55)) (or ?v_232 ?v_86)) (or (or ?v_140 ?v_55) ?v_213)) (or (or P30 ?v_132) P0)) (or (or ?v_125 ?v_133) ?v_192)) (or (or ?v_69 ?v_60) ?v_33)) (or (or ?v_1 ?v_68) ?v_151)) (or (or P32 ?v_233) ?v_116)) (or (or ?v_92 ?v_65) ?v_130)) (or (or ?v_13 P40) P5)) (or (or P16 P14) ?v_191)) (or (or ?v_37 ?v_218) ?v_190)) (or (or P11 ?v_96) P47)) (or (or ?v_20 (not P17)) ?v_229)) (or (or ?v_124 P11) P43)) (or (or ?v_100 ?v_204) ?v_54)) (or (or ?v_180 ?v_84) P36)) (or (or ?v_214 ?v_236) ?v_100)) (or (or ?v_228 P41) ?v_146)) (or (or ?v_127 ?v_18) P5)) (or (or P48 P14) ?v_30)) (or (or ?v_124 ?v_144) P20)) (or (or ?v_234 ?v_146) ?v_26)) (or (or ?v_226 ?v_235) ?v_63)) (or (or P34 ?v_168) ?v_59)) (or (or ?v_84 ?v_24) ?v_17)) (or (or ?v_79 P39) ?v_39)) (or (or ?v_224 ?v_236) ?v_237)) (or (or ?v_70 ?v_238) ?v_14)) (or (or ?v_201 ?v_239) ?v_182)) (or (or ?v_161 ?v_223) ?v_146)) (or (or ?v_90 ?v_85) ?v_144)) (or (or ?v_84 ?v_140) ?v_43)) (or (or ?v_204 ?v_138) ?v_18)) (or (or ?v_217 ?v_17) ?v_152)) (or (or ?v_238 ?v_178) ?v_240)) (or (or ?v_221 P45) ?v_170)) (or (or ?v_98 P5) P11)) (or ?v_241 ?v_194)) (or (or P16 P4) ?v_189)) (or (or ?v_13 ?v_153) ?v_208)) (or (or ?v_98 ?v_178) P14)) (or (or P39 ?v_184) ?v_228)) (or (or ?v_42 ?v_64) P32)) (or (or P49 ?v_150) ?v_37)) (or (or ?v_209 ?v_47) ?v_17)) (or (or ?v_172 ?v_150) ?v_186)) (or (or ?v_35 P23) ?v_235)) (or (or ?v_97 ?v_112) P22)) (or (or ?v_98 ?v_113) P46)) (or (or ?v_242 ?v_177) ?v_188)) (or (or ?v_17 ?v_97) ?v_194)) (or (or P0 ?v_11) ?v_229)) (or (or ?v_175 ?v_111) ?v_210)) (or (or ?v_130 ?v_204) ?v_167)) (or (or ?v_163 ?v_182) ?v_11)) (or (or ?v_47 ?v_16) ?v_184)) (or (or ?v_79 ?v_132) ?v_96)) (or (or P0 ?v_39) ?v_175)) (or (or ?v_100 ?v_120) ?v_72)) (or (or P3 ?v_115) ?v_103)) (or (or ?v_200 ?v_51) P37)) (or (or P38 ?v_102) ?v_136)) (or (or ?v_102 ?v_76) ?v_134)) (or (or ?v_199 ?v_42) ?v_31)) (or (or ?v_74 P23) ?v_83)) (or (or ?v_113 P35) P36)) (or (or ?v_57 ?v_7) ?v_194)) (or (or ?v_223 ?v_157) ?v_104)) (or (or ?v_243 ?v_118) ?v_19)) (or (or ?v_135 ?v_244) P38)) (or (or P45 ?v_126) ?v_143)) (or (or ?v_31 ?v_97) ?v_63)) (or (or ?v_238 ?v_123) ?v_34)) (or (or ?v_6 ?v_162) ?v_45)) (or (or ?v_211 ?v_77) ?v_125)) (or (or ?v_162 ?v_97) ?v_125)) (or (or ?v_142 ?v_4) ?v_30)) (or (or ?v_242 ?v_86) ?v_150)) (or (or ?v_140 ?v_63) ?v_88)) (or (or ?v_231 ?v_210) ?v_212)) (or (or ?v_124 ?v_183) ?v_207)) (or (or ?v_245 ?v_170) ?v_206)) (or (or ?v_142 ?v_0) ?v_161)) (or (or ?v_83 P17) ?v_192)) (or (or ?v_149 ?v_60) ?v_156)) (or (or ?v_198 ?v_206) ?v_150)) (or (or ?v_238 P39) ?v_203)) (or (or ?v_200 P23) ?v_117)) (or (or ?v_100 ?v_136) P13)) (or (or ?v_192 P23) ?v_80)) (or (or ?v_29 ?v_51) P49)) (or (or ?v_48 ?v_201) ?v_36)) (or (or P17 ?v_138) ?v_127)) (or (or ?v_246 ?v_20) ?v_35)) (or (or P42 ?v_128) ?v_58)) (or (or P33 P25) ?v_68)) (or (or ?v_245 ?v_247) ?v_248)) (or (or ?v_39 ?v_92) ?v_108)) (or (or P26 ?v_64) P49)) (or (or P35 ?v_94) ?v_23)) (or (or ?v_172 ?v_39) P28)) (or (or ?v_73 ?v_49) ?v_6)) (or (or ?v_59 ?v_217) P8)) (or (or ?v_225 ?v_50) ?v_41)) (or (or ?v_148 ?v_116) P36)) (or (or ?v_21 ?v_76) ?v_111)) (or (or ?v_224 ?v_109) ?v_208)) (or (or ?v_144 ?v_223) ?v_90)) (or (or ?v_2 ?v_57) ?v_11)) (or (or ?v_122 ?v_64) ?v_118)) (or (or P22 P27) ?v_151)) (or (or ?v_93 ?v_225) ?v_123)) (or (or ?v_249 ?v_175) ?v_236)) (or (or ?v_133 ?v_103) ?v_147)) (or (or ?v_235 P23) ?v_109)) (or (or ?v_115 ?v_173) ?v_236)) (or (or P29 ?v_240) ?v_238)) (or (or ?v_114 ?v_58) ?v_36)) (or (or ?v_250 ?v_230) ?v_51)) (or (or ?v_108 ?v_123) ?v_16)) (or (or ?v_31 ?v_163) ?v_201)) (or (or P26 P42) ?v_251)) (or (or ?v_146 ?v_225) ?v_135)) (or (or ?v_205 ?v_188) P38)) (or (or P7 ?v_150) ?v_200)) (or (or ?v_58 ?v_21) ?v_95)) (or (or P23 ?v_250) ?v_217)) (or (or ?v_252 ?v_58) ?v_98)) (or (or ?v_95 ?v_38) ?v_14)) (or (or ?v_10 ?v_26) ?v_220)) (or (or ?v_181 P32) ?v_206)) (or (or ?v_88 ?v_105) ?v_182)) (or (or P37 ?v_126) ?v_224)) (or (or P0 ?v_109) P44)) (or (or ?v_85 ?v_106) ?v_216)) (or (or ?v_201 ?v_90) ?v_147)) (or (or ?v_7 ?v_37) ?v_145)) (or (or ?v_88 ?v_54) ?v_131)) (or (or P39 ?v_4) P46)) (or (or ?v_189 ?v_46) P42)) (or (or P3 ?v_33) ?v_173)) (or (or ?v_196 ?v_206) ?v_148)) (or (or ?v_5 ?v_160) P19)) (or (or ?v_47 ?v_23) P41)) (or (or ?v_11 ?v_171) P38)) (or (or ?v_43 ?v_10) ?v_149)) (or (or ?v_164 ?v_154) ?v_210)) (or (or P33 P10) ?v_226)) (or (or ?v_7 P48) ?v_133)) (or (or ?v_134 ?v_101) ?v_149)) (or (or ?v_214 ?v_81) ?v_138)) (or (or ?v_72 ?v_60) ?v_182)) (or (or ?v_131 ?v_251) ?v_54)) (or (or P16 ?v_66) ?v_138)) (or (or ?v_221 ?v_53) ?v_126)) (or (or ?v_202 ?v_10) ?v_211)) (or (or ?v_51 ?v_253) ?v_105)) (or (or ?v_99 ?v_85) ?v_182)) (or (or ?v_197 ?v_64) ?v_153)) (or (or ?v_43 ?v_230) P22)) (or (or ?v_54 P39) ?v_230)) (or (or ?v_31 ?v_147) ?v_179)) (or (or P30 ?v_195) ?v_213)) (or (or ?v_189 P47) ?v_4)) (or (or ?v_134 ?v_185) P1)) (or (or ?v_240 P30) P47)) (or (or ?v_41 ?v_172) P38)) (or (or ?v_127 P40) ?v_18)) (or (or ?v_12 ?v_221) ?v_14)) (or (or ?v_219 ?v_145) P17)) (or (or ?v_35 P28) ?v_98)) (or (or ?v_221 ?v_7) P15)) (or (or ?v_19 P25) P48)) (or (or ?v_45 ?v_84) ?v_64)) (or (or P37 ?v_99) ?v_54)) (or (or ?v_123 P14) ?v_152)) (or (or P5 ?v_237) ?v_135)) (or (or ?v_187 ?v_223) ?v_208)) (or (or ?v_133 ?v_173) ?v_6)) (or (or P39 P20) P6)) (or (or (not ?v_109) ?v_221) ?v_11)) (or (or ?v_250 ?v_70) ?v_112)) (or (or ?v_58 P39) ?v_72)) (or (or ?v_32 ?v_217) ?v_226)) (or (or ?v_42 P17) ?v_251)) (or (or ?v_93 ?v_26) P30)) (or (or ?v_60 ?v_95) ?v_246)) (or (or P18 P34) P22)) (or (or ?v_173 ?v_52) P8)) (or (or ?v_137 P16) ?v_164)) (or (or ?v_184 ?v_226) ?v_49)) (or (or P16 ?v_92) ?v_121)) (or (or P34 ?v_120) ?v_226)) (or (or ?v_60 ?v_166) ?v_6)) (or (or ?v_46 ?v_126) ?v_237)) (or (or ?v_30 ?v_49) ?v_0)) (or (or ?v_11 ?v_30) ?v_162)) (or (or ?v_16 ?v_191) ?v_18)) (or (or ?v_67 ?v_205) ?v_201)) (or (or ?v_133 ?v_162) ?v_62)) (or (or ?v_7 ?v_93) ?v_147)) (or (or ?v_106 ?v_150) P11)) (or (or ?v_248 P8) ?v_158)) (or (or P31 P47) P41)) (or (or ?v_168 ?v_190) ?v_100)) (or (or ?v_230 ?v_202) ?v_69)) (or (or P7 P43) ?v_169)) (or (or ?v_252 ?v_26) P6)) (or (or ?v_206 ?v_197) ?v_193)) (or (or ?v_231 ?v_117) ?v_17)) (or (or ?v_41 ?v_128) ?v_139)) (or (or ?v_187 ?v_62) ?v_147)) (or (or ?v_18 ?v_68) ?v_141)) (or (or ?v_244 ?v_140) ?v_129)) (or (or P22 P6) ?v_118)) (or (or ?v_10 ?v_221) ?v_238)) (or (or ?v_239 ?v_111) ?v_179)) (or (or P48 ?v_249) ?v_239)) (or (or ?v_229 ?v_9) ?v_243)) (or (or ?v_245 ?v_216) ?v_123)) (or (or ?v_191 ?v_172) ?v_140)) (or (or ?v_198 ?v_254) ?v_106)) (or (or P31 ?v_191) ?v_1)) (or (or P25 ?v_98) ?v_34)) (or (or ?v_186 P43) ?v_12)) (or (or ?v_252 ?v_37) P24)) (or (or P12 ?v_50) ?v_246)) (or (or ?v_171 ?v_144) ?v_38)) (or (or ?v_105 P25) ?v_18)) (or (or ?v_93 ?v_71) ?v_30)) (or (or ?v_182 ?v_187) ?v_225)))))))))))))))))))))))))))))))))))
(check-sat)
(exit)
